100 4950
1 2 3
1 3 3
1 4 1
1 5 5
1 6 2
1 7 5
1 8 3
1 9 5
1 10 4
1 11 5
1 12 5
1 13 5
1 14 4
1 15 4
1 16 2
1 17 1
1 18 2
1 19 4
1 20 1
1 21 1
1 22 1
1 23 4
1 24 3
1 25 2
1 26 4
1 27 1
1 28 2
1 29 4
1 30 4
1 31 4
1 32 3
1 33 1
1 34 5
1 35 5
1 36 2
1 37 2
1 38 5
1 39 3
1 40 4
1 41 3
1 42 1
1 43 3
1 44 5
1 45 4
1 46 1
1 47 5
1 48 4
1 49 4
1 50 2
1 51 3
1 52 4
1 53 3
1 54 2
1 55 4
1 56 3
1 57 5
1 58 1
1 59 2
1 60 3
1 61 3
1 62 2
1 63 3
1 64 4
1 65 2
1 66 1
1 67 1
1 68 3
1 69 1
1 70 4
1 71 5
1 72 2
1 73 2
1 74 3
1 75 3
1 76 2
1 77 2
1 78 1
1 79 2
1 80 3
1 81 1
1 82 5
1 83 5
1 84 3
1 85 4
1 86 4
1 87 5
1 88 1
1 89 2
1 90 3
1 91 4
1 92 5
1 93 4
1 94 3
1 95 3
1 96 1
1 97 5
1 98 4
1 99 5
1 100 2
2 3 4
2 4 2
2 5 3
2 6 2
2 7 5
2 8 2
2 9 5
2 10 2
2 11 1
2 12 2
2 13 3
2 14 1
2 15 2
2 16 1
2 17 5
2 18 2
2 19 3
2 20 1
2 21 5
2 22 1
2 23 1
2 24 3
2 25 2
2 26 1
2 27 3
2 28 2
2 29 5
2 30 1
2 31 3
2 32 3
2 33 2
2 34 5
2 35 4
2 36 3
2 37 5
2 38 2
2 39 2
2 40 2
2 41 1
2 42 4
2 43 3
2 44 1
2 45 4
2 46 3
2 47 5
2 48 3
2 49 3
2 50 5
2 51 2
2 52 3
2 53 5
2 54 4
2 55 5
2 56 3
2 57 2
2 58 4
2 59 3
2 60 3
2 61 4
2 62 4
2 63 1
2 64 1
2 65 4
2 66 5
2 67 5
2 68 3
2 69 3
2 70 5
2 71 1
2 72 1
2 73 4
2 74 5
2 75 4
2 76 1
2 77 1
2 78 3
2 79 1
2 80 5
2 81 4
2 82 2
2 83 3
2 84 5
2 85 5
2 86 5
2 87 1
2 88 1
2 89 5
2 90 4
2 91 5
2 92 5
2 93 1
2 94 2
2 95 1
2 96 5
2 97 5
2 98 5
2 99 1
2 100 3
3 4 3
3 5 5
3 6 4
3 7 2
3 8 4
3 9 5
3 10 3
3 11 5
3 12 5
3 13 5
3 14 4
3 15 4
3 16 2
3 17 3
3 18 3
3 19 4
3 20 2
3 21 5
3 22 4
3 23 5
3 24 3
3 25 4
3 26 4
3 27 2
3 28 1
3 29 3
3 30 4
3 31 2
3 32 5
3 33 5
3 34 1
3 35 1
3 36 3
3 37 2
3 38 5
3 39 5
3 40 1
3 41 4
3 42 4
3 43 3
3 44 3
3 45 5
3 46 2
3 47 1
3 48 5
3 49 3
3 50 3
3 51 5
3 52 2
3 53 3
3 54 5
3 55 5
3 56 4
3 57 3
3 58 4
3 59 2
3 60 4
3 61 1
3 62 4
3 63 4
3 64 5
3 65 4
3 66 1
3 67 3
3 68 4
3 69 2
3 70 3
3 71 1
3 72 5
3 73 4
3 74 2
3 75 3
3 76 5
3 77 3
3 78 3
3 79 4
3 80 5
3 81 1
3 82 3
3 83 4
3 84 5
3 85 1
3 86 4
3 87 2
3 88 5
3 89 1
3 90 4
3 91 5
3 92 5
3 93 4
3 94 2
3 95 1
3 96 2
3 97 2
3 98 4
3 99 4
3 100 3
4 5 2
4 6 3
4 7 5
4 8 5
4 9 1
4 10 5
4 11 3
4 12 5
4 13 5
4 14 2
4 15 5
4 16 3
4 17 5
4 18 2
4 19 5
4 20 2
4 21 2
4 22 4
4 23 1
4 24 4
4 25 3
4 26 1
4 27 5
4 28 1
4 29 3
4 30 4
4 31 4
4 32 2
4 33 1
4 34 3
4 35 3
4 36 1
4 37 5
4 38 5
4 39 4
4 40 1
4 41 3
4 42 5
4 43 2
4 44 2
4 45 2
4 46 2
4 47 1
4 48 2
4 49 4
4 50 1
4 51 1
4 52 2
4 53 2
4 54 5
4 55 1
4 56 2
4 57 4
4 58 1
4 59 5
4 60 5
4 61 3
4 62 1
4 63 2
4 64 3
4 65 4
4 66 3
4 67 3
4 68 1
4 69 5
4 70 2
4 71 4
4 72 3
4 73 4
4 74 5
4 75 1
4 76 1
4 77 3
4 78 2
4 79 5
4 80 1
4 81 1
4 82 4
4 83 2
4 84 2
4 85 2
4 86 3
4 87 5
4 88 2
4 89 4
4 90 4
4 91 1
4 92 5
4 93 1
4 94 5
4 95 1
4 96 3
4 97 1
4 98 1
4 99 4
4 100 5
5 6 5
5 7 1
5 8 4
5 9 2
5 10 4
5 11 5
5 12 5
5 13 1
5 14 5
5 15 2
5 16 2
5 17 5
5 18 4
5 19 4
5 20 1
5 21 5
5 22 2
5 23 4
5 24 2
5 25 4
5 26 1
5 27 5
5 28 1
5 29 3
5 30 4
5 31 4
5 32 2
5 33 3
5 34 4
5 35 5
5 36 3
5 37 5
5 38 3
5 39 3
5 40 5
5 41 2
5 42 3
5 43 4
5 44 4
5 45 3
5 46 3
5 47 4
5 48 4
5 49 5
5 50 1
5 51 3
5 52 1
5 53 3
5 54 2
5 55 1
5 56 5
5 57 2
5 58 1
5 59 4
5 60 4
5 61 2
5 62 1
5 63 1
5 64 2
5 65 3
5 66 3
5 67 3
5 68 5
5 69 3
5 70 4
5 71 4
5 72 4
5 73 1
5 74 1
5 75 5
5 76 3
5 77 2
5 78 5
5 79 2
5 80 2
5 81 5
5 82 2
5 83 5
5 84 3
5 85 4
5 86 2
5 87 3
5 88 4
5 89 5
5 90 4
5 91 4
5 92 1
5 93 4
5 94 2
5 95 1
5 96 4
5 97 2
5 98 5
5 99 4
5 100 5
6 7 2
6 8 2
6 9 3
6 10 4
6 11 4
6 12 5
6 13 2
6 14 1
6 15 1
6 16 1
6 17 5
6 18 2
6 19 5
6 20 5
6 21 4
6 22 1
6 23 2
6 24 3
6 25 5
6 26 2
6 27 4
6 28 1
6 29 2
6 30 3
6 31 3
6 32 5
6 33 4
6 34 4
6 35 1
6 36 2
6 37 4
6 38 5
6 39 2
6 40 1
6 41 2
6 42 3
6 43 5
6 44 2
6 45 3
6 46 1
6 47 1
6 48 3
6 49 4
6 50 4
6 51 2
6 52 4
6 53 4
6 54 2
6 55 2
6 56 3
6 57 3
6 58 5
6 59 2
6 60 5
6 61 5
6 62 2
6 63 5
6 64 5
6 65 1
6 66 2
6 67 5
6 68 4
6 69 4
6 70 2
6 71 3
6 72 1
6 73 4
6 74 1
6 75 3
6 76 3
6 77 2
6 78 4
6 79 3
6 80 2
6 81 5
6 82 5
6 83 1
6 84 1
6 85 5
6 86 5
6 87 4
6 88 4
6 89 5
6 90 1
6 91 2
6 92 5
6 93 3
6 94 4
6 95 3
6 96 2
6 97 3
6 98 1
6 99 3
6 100 5
7 8 4
7 9 2
7 10 5
7 11 5
7 12 4
7 13 2
7 14 5
7 15 3
7 16 5
7 17 3
7 18 3
7 19 4
7 20 4
7 21 4
7 22 5
7 23 1
7 24 2
7 25 5
7 26 1
7 27 4
7 28 4
7 29 2
7 30 4
7 31 1
7 32 4
7 33 2
7 34 4
7 35 2
7 36 5
7 37 2
7 38 3
7 39 1
7 40 1
7 41 2
7 42 2
7 43 1
7 44 1
7 45 5
7 46 5
7 47 3
7 48 5
7 49 4
7 50 5
7 51 2
7 52 2
7 53 5
7 54 4
7 55 5
7 56 5
7 57 4
7 58 4
7 59 5
7 60 3
7 61 4
7 62 4
7 63 5
7 64 2
7 65 3
7 66 4
7 67 4
7 68 3
7 69 4
7 70 2
7 71 5
7 72 3
7 73 2
7 74 1
7 75 5
7 76 4
7 77 3
7 78 1
7 79 3
7 80 4
7 81 4
7 82 4
7 83 2
7 84 4
7 85 2
7 86 4
7 87 5
7 88 1
7 89 5
7 90 5
7 91 2
7 92 2
7 93 1
7 94 1
7 95 1
7 96 5
7 97 1
7 98 4
7 99 2
7 100 1
8 9 3
8 10 1
8 11 2
8 12 1
8 13 5
8 14 4
8 15 2
8 16 5
8 17 3
8 18 3
8 19 4
8 20 3
8 21 4
8 22 2
8 23 1
8 24 2
8 25 4
8 26 5
8 27 2
8 28 5
8 29 1
8 30 5
8 31 2
8 32 3
8 33 4
8 34 5
8 35 3
8 36 5
8 37 5
8 38 4
8 39 5
8 40 4
8 41 3
8 42 5
8 43 1
8 44 4
8 45 4
8 46 2
8 47 3
8 48 2
8 49 2
8 50 1
8 51 5
8 52 2
8 53 3
8 54 3
8 55 3
8 56 4
8 57 5
8 58 2
8 59 3
8 60 4
8 61 1
8 62 4
8 63 3
8 64 4
8 65 2
8 66 2
8 67 4
8 68 1
8 69 5
8 70 1
8 71 1
8 72 4
8 73 3
8 74 1
8 75 1
8 76 1
8 77 5
8 78 5
8 79 4
8 80 4
8 81 4
8 82 4
8 83 3
8 84 2
8 85 4
8 86 5
8 87 2
8 88 5
8 89 3
8 90 4
8 91 2
8 92 4
8 93 5
8 94 5
8 95 5
8 96 2
8 97 4
8 98 3
8 99 5
8 100 5
9 10 1
9 11 4
9 12 3
9 13 1
9 14 4
9 15 2
9 16 1
9 17 1
9 18 5
9 19 3
9 20 1
9 21 3
9 22 3
9 23 1
9 24 4
9 25 4
9 26 2
9 27 3
9 28 3
9 29 2
9 30 2
9 31 5
9 32 1
9 33 1
9 34 1
9 35 4
9 36 2
9 37 4
9 38 5
9 39 1
9 40 4
9 41 3
9 42 4
9 43 5
9 44 2
9 45 1
9 46 4
9 47 4
9 48 4
9 49 2
9 50 4
9 51 5
9 52 4
9 53 4
9 54 3
9 55 5
9 56 2
9 57 2
9 58 5
9 59 1
9 60 5
9 61 3
9 62 1
9 63 2
9 64 5
9 65 2
9 66 1
9 67 4
9 68 4
9 69 4
9 70 2
9 71 3
9 72 3
9 73 4
9 74 5
9 75 5
9 76 2
9 77 2
9 78 3
9 79 5
9 80 4
9 81 2
9 82 5
9 83 4
9 84 1
9 85 1
9 86 2
9 87 5
9 88 2
9 89 5
9 90 2
9 91 1
9 92 3
9 93 5
9 94 1
9 95 1
9 96 5
9 97 3
9 98 1
9 99 2
9 100 5
10 11 5
10 12 1
10 13 5
10 14 2
10 15 1
10 16 5
10 17 5
10 18 2
10 19 5
10 20 2
10 21 1
10 22 4
10 23 3
10 24 3
10 25 4
10 26 1
10 27 4
10 28 2
10 29 3
10 30 4
10 31 3
10 32 2
10 33 5
10 34 3
10 35 2
10 36 4
10 37 3
10 38 5
10 39 3
10 40 2
10 41 5
10 42 3
10 43 2
10 44 2
10 45 1
10 46 3
10 47 3
10 48 4
10 49 5
10 50 3
10 51 1
10 52 1
10 53 1
10 54 3
10 55 1
10 56 3
10 57 2
10 58 2
10 59 4
10 60 2
10 61 5
10 62 4
10 63 4
10 64 2
10 65 4
10 66 3
10 67 1
10 68 2
10 69 4
10 70 3
10 71 1
10 72 3
10 73 1
10 74 2
10 75 2
10 76 5
10 77 1
10 78 5
10 79 5
10 80 2
10 81 1
10 82 4
10 83 2
10 84 2
10 85 1
10 86 2
10 87 2
10 88 4
10 89 3
10 90 2
10 91 1
10 92 4
10 93 2
10 94 1
10 95 5
10 96 5
10 97 3
10 98 4
10 99 4
10 100 4
11 12 1
11 13 5
11 14 2
11 15 2
11 16 3
11 17 3
11 18 2
11 19 5
11 20 2
11 21 3
11 22 1
11 23 1
11 24 4
11 25 3
11 26 4
11 27 5
11 28 4
11 29 1
11 30 3
11 31 2
11 32 5
11 33 5
11 34 3
11 35 5
11 36 4
11 37 1
11 38 3
11 39 1
11 40 4
11 41 1
11 42 1
11 43 5
11 44 1
11 45 1
11 46 4
11 47 4
11 48 5
11 49 2
11 50 4
11 51 3
11 52 5
11 53 5
11 54 1
11 55 4
11 56 4
11 57 3
11 58 2
11 59 2
11 60 1
11 61 3
11 62 5
11 63 5
11 64 4
11 65 3
11 66 1
11 67 1
11 68 4
11 69 1
11 70 4
11 71 3
11 72 1
11 73 4
11 74 3
11 75 4
11 76 1
11 77 1
11 78 1
11 79 3
11 80 1
11 81 2
11 82 5
11 83 5
11 84 4
11 85 2
11 86 2
11 87 2
11 88 4
11 89 1
11 90 4
11 91 4
11 92 1
11 93 1
11 94 5
11 95 4
11 96 4
11 97 5
11 98 4
11 99 5
11 100 1
12 13 5
12 14 3
12 15 4
12 16 4
12 17 2
12 18 2
12 19 2
12 20 2
12 21 5
12 22 4
12 23 3
12 24 2
12 25 5
12 26 4
12 27 4
12 28 1
12 29 2
12 30 1
12 31 5
12 32 3
12 33 2
12 34 4
12 35 2
12 36 4
12 37 1
12 38 4
12 39 2
12 40 4
12 41 2
12 42 4
12 43 4
12 44 5
12 45 1
12 46 2
12 47 2
12 48 2
12 49 4
12 50 1
12 51 1
12 52 5
12 53 5
12 54 4
12 55 4
12 56 2
12 57 5
12 58 1
12 59 2
12 60 4
12 61 4
12 62 3
12 63 5
12 64 3
12 65 4
12 66 3
12 67 1
12 68 5
12 69 1
12 70 2
12 71 5
12 72 5
12 73 5
12 74 1
12 75 5
12 76 3
12 77 3
12 78 4
12 79 1
12 80 2
12 81 5
12 82 5
12 83 4
12 84 4
12 85 2
12 86 5
12 87 2
12 88 2
12 89 5
12 90 4
12 91 3
12 92 2
12 93 2
12 94 5
12 95 1
12 96 4
12 97 5
12 98 1
12 99 2
12 100 4
13 14 3
13 15 3
13 16 1
13 17 3
13 18 4
13 19 1
13 20 2
13 21 5
13 22 1
13 23 4
13 24 5
13 25 2
13 26 4
13 27 1
13 28 3
13 29 5
13 30 1
13 31 4
13 32 5
13 33 5
13 34 5
13 35 2
13 36 3
13 37 3
13 38 2
13 39 1
13 40 5
13 41 3
13 42 2
13 43 1
13 44 5
13 45 5
13 46 2
13 47 2
13 48 4
13 49 2
13 50 2
13 51 5
13 52 1
13 53 2
13 54 3
13 55 1
13 56 2
13 57 2
13 58 1
13 59 1
13 60 3
13 61 5
13 62 2
13 63 4
13 64 4
13 65 1
13 66 5
13 67 4
13 68 1
13 69 1
13 70 1
13 71 4
13 72 3
13 73 5
13 74 2
13 75 1
13 76 5
13 77 2
13 78 2
13 79 4
13 80 4
13 81 3
13 82 1
13 83 2
13 84 2
13 85 2
13 86 3
13 87 1
13 88 1
13 89 5
13 90 5
13 91 1
13 92 2
13 93 5
13 94 5
13 95 1
13 96 1
13 97 3
13 98 4
13 99 3
13 100 1
14 15 2
14 16 3
14 17 1
14 18 5
14 19 3
14 20 3
14 21 4
14 22 5
14 23 4
14 24 3
14 25 1
14 26 4
14 27 1
14 28 5
14 29 4
14 30 3
14 31 4
14 32 2
14 33 5
14 34 5
14 35 1
14 36 3
14 37 3
14 38 1
14 39 4
14 40 5
14 41 3
14 42 1
14 43 1
14 44 4
14 45 4
14 46 4
14 47 4
14 48 2
14 49 5
14 50 3
14 51 1
14 52 2
14 53 1
14 54 3
14 55 2
14 56 1
14 57 1
14 58 3
14 59 5
14 60 3
14 61 3
14 62 1
14 63 5
14 64 3
14 65 5
14 66 3
14 67 2
14 68 1
14 69 3
14 70 1
14 71 3
14 72 4
14 73 5
14 74 3
14 75 2
14 76 3
14 77 1
14 78 2
14 79 4
14 80 4
14 81 1
14 82 1
14 83 4
14 84 1
14 85 3
14 86 3
14 87 1
14 88 1
14 89 4
14 90 4
14 91 4
14 92 1
14 93 5
14 94 1
14 95 3
14 96 1
14 97 2
14 98 1
14 99 5
14 100 2
15 16 5
15 17 2
15 18 3
15 19 5
15 20 2
15 21 3
15 22 3
15 23 2
15 24 3
15 25 2
15 26 5
15 27 4
15 28 3
15 29 5
15 30 1
15 31 2
15 32 5
15 33 4
15 34 5
15 35 2
15 36 3
15 37 3
15 38 3
15 39 1
15 40 2
15 41 1
15 42 3
15 43 3
15 44 3
15 45 3
15 46 5
15 47 3
15 48 4
15 49 5
15 50 1
15 51 4
15 52 3
15 53 5
15 54 1
15 55 2
15 56 2
15 57 1
15 58 4
15 59 5
15 60 3
15 61 2
15 62 4
15 63 4
15 64 2
15 65 1
15 66 2
15 67 5
15 68 1
15 69 5
15 70 4
15 71 4
15 72 2
15 73 5
15 74 1
15 75 3
15 76 1
15 77 2
15 78 1
15 79 4
15 80 4
15 81 2
15 82 1
15 83 1
15 84 5
15 85 2
15 86 4
15 87 5
15 88 3
15 89 3
15 90 4
15 91 4
15 92 2
15 93 3
15 94 5
15 95 5
15 96 2
15 97 2
15 98 2
15 99 4
15 100 3
16 17 5
16 18 4
16 19 5
16 20 3
16 21 5
16 22 2
16 23 3
16 24 5
16 25 5
16 26 4
16 27 3
16 28 5
16 29 2
16 30 5
16 31 5
16 32 2
16 33 2
16 34 1
16 35 2
16 36 1
16 37 5
16 38 5
16 39 2
16 40 5
16 41 5
16 42 2
16 43 4
16 44 3
16 45 1
16 46 3
16 47 3
16 48 1
16 49 4
16 50 1
16 51 3
16 52 5
16 53 3
16 54 5
16 55 4
16 56 1
16 57 5
16 58 5
16 59 4
16 60 5
16 61 3
16 62 3
16 63 4
16 64 2
16 65 2
16 66 1
16 67 3
16 68 1
16 69 4
16 70 1
16 71 2
16 72 2
16 73 2
16 74 4
16 75 3
16 76 1
16 77 2
16 78 4
16 79 2
16 80 4
16 81 1
16 82 3
16 83 3
16 84 4
16 85 3
16 86 2
16 87 5
16 88 1
16 89 4
16 90 4
16 91 1
16 92 1
16 93 3
16 94 5
16 95 1
16 96 5
16 97 2
16 98 5
16 99 1
16 100 1
17 18 2
17 19 5
17 20 1
17 21 2
17 22 1
17 23 4
17 24 3
17 25 5
17 26 5
17 27 2
17 28 5
17 29 2
17 30 4
17 31 2
17 32 3
17 33 1
17 34 3
17 35 4
17 36 2
17 37 2
17 38 1
17 39 1
17 40 2
17 41 3
17 42 2
17 43 2
17 44 2
17 45 5
17 46 1
17 47 4
17 48 5
17 49 2
17 50 1
17 51 4
17 52 1
17 53 2
17 54 5
17 55 3
17 56 1
17 57 3
17 58 2
17 59 2
17 60 4
17 61 5
17 62 4
17 63 4
17 64 1
17 65 1
17 66 3
17 67 3
17 68 3
17 69 5
17 70 2
17 71 5
17 72 1
17 73 1
17 74 5
17 75 3
17 76 5
17 77 3
17 78 3
17 79 1
17 80 1
17 81 5
17 82 5
17 83 5
17 84 2
17 85 5
17 86 3
17 87 1
17 88 5
17 89 2
17 90 2
17 91 1
17 92 1
17 93 5
17 94 3
17 95 1
17 96 1
17 97 3
17 98 3
17 99 5
17 100 2
18 19 4
18 20 3
18 21 2
18 22 5
18 23 5
18 24 2
18 25 5
18 26 1
18 27 1
18 28 1
18 29 2
18 30 5
18 31 3
18 32 4
18 33 4
18 34 2
18 35 3
18 36 2
18 37 3
18 38 3
18 39 3
18 40 5
18 41 4
18 42 3
18 43 4
18 44 3
18 45 3
18 46 4
18 47 3
18 48 5
18 49 5
18 50 4
18 51 3
18 52 5
18 53 1
18 54 3
18 55 2
18 56 3
18 57 1
18 58 3
18 59 5
18 60 5
18 61 5
18 62 5
18 63 5
18 64 3
18 65 2
18 66 1
18 67 4
18 68 2
18 69 5
18 70 4
18 71 4
18 72 2
18 73 3
18 74 5
18 75 3
18 76 3
18 77 2
18 78 3
18 79 2
18 80 4
18 81 4
18 82 2
18 83 3
18 84 1
18 85 2
18 86 4
18 87 2
18 88 1
18 89 1
18 90 4
18 91 3
18 92 2
18 93 5
18 94 4
18 95 3
18 96 5
18 97 5
18 98 2
18 99 3
18 100 2
19 20 4
19 21 2
19 22 3
19 23 5
19 24 3
19 25 3
19 26 3
19 27 4
19 28 4
19 29 4
19 30 4
19 31 5
19 32 1
19 33 3
19 34 2
19 35 3
19 36 2
19 37 5
19 38 3
19 39 3
19 40 2
19 41 5
19 42 3
19 43 1
19 44 4
19 45 1
19 46 1
19 47 3
19 48 4
19 49 5
19 50 1
19 51 2
19 52 4
19 53 1
19 54 1
19 55 1
19 56 5
19 57 3
19 58 3
19 59 2
19 60 3
19 61 4
19 62 4
19 63 1
19 64 4
19 65 3
19 66 3
19 67 3
19 68 3
19 69 1
19 70 1
19 71 5
19 72 3
19 73 1
19 74 2
19 75 1
19 76 4
19 77 1
19 78 5
19 79 5
19 80 1
19 81 5
19 82 3
19 83 5
19 84 4
19 85 1
19 86 4
19 87 5
19 88 4
19 89 4
19 90 1
19 91 4
19 92 3
19 93 4
19 94 3
19 95 1
19 96 5
19 97 5
19 98 1
19 99 3
19 100 3
20 21 4
20 22 5
20 23 5
20 24 1
20 25 3
20 26 1
20 27 5
20 28 3
20 29 4
20 30 3
20 31 1
20 32 2
20 33 1
20 34 3
20 35 4
20 36 2
20 37 1
20 38 3
20 39 1
20 40 1
20 41 5
20 42 5
20 43 1
20 44 1
20 45 2
20 46 1
20 47 1
20 48 1
20 49 5
20 50 5
20 51 4
20 52 4
20 53 5
20 54 3
20 55 2
20 56 5
20 57 3
20 58 5
20 59 2
20 60 2
20 61 2
20 62 3
20 63 5
20 64 1
20 65 4
20 66 5
20 67 1
20 68 3
20 69 5
20 70 3
20 71 1
20 72 1
20 73 3
20 74 5
20 75 3
20 76 4
20 77 2
20 78 5
20 79 1
20 80 1
20 81 5
20 82 5
20 83 1
20 84 4
20 85 2
20 86 2
20 87 4
20 88 3
20 89 2
20 90 1
20 91 2
20 92 3
20 93 2
20 94 5
20 95 5
20 96 5
20 97 4
20 98 2
20 99 5
20 100 1
21 22 2
21 23 3
21 24 5
21 25 4
21 26 3
21 27 3
21 28 5
21 29 1
21 30 2
21 31 3
21 32 4
21 33 3
21 34 1
21 35 1
21 36 5
21 37 2
21 38 1
21 39 3
21 40 1
21 41 5
21 42 2
21 43 1
21 44 5
21 45 5
21 46 3
21 47 3
21 48 2
21 49 2
21 50 4
21 51 1
21 52 3
21 53 4
21 54 2
21 55 3
21 56 5
21 57 2
21 58 4
21 59 4
21 60 5
21 61 1
21 62 4
21 63 4
21 64 1
21 65 5
21 66 1
21 67 3
21 68 4
21 69 5
21 70 5
21 71 5
21 72 2
21 73 2
21 74 5
21 75 4
21 76 2
21 77 2
21 78 5
21 79 3
21 80 5
21 81 3
21 82 4
21 83 2
21 84 3
21 85 1
21 86 2
21 87 2
21 88 2
21 89 3
21 90 4
21 91 5
21 92 5
21 93 5
21 94 3
21 95 4
21 96 1
21 97 2
21 98 1
21 99 3
21 100 1
22 23 2
22 24 1
22 25 4
22 26 5
22 27 4
22 28 4
22 29 3
22 30 5
22 31 2
22 32 4
22 33 5
22 34 2
22 35 4
22 36 5
22 37 4
22 38 4
22 39 2
22 40 5
22 41 3
22 42 3
22 43 3
22 44 4
22 45 2
22 46 2
22 47 1
22 48 3
22 49 5
22 50 3
22 51 1
22 52 5
22 53 4
22 54 5
22 55 2
22 56 5
22 57 3
22 58 3
22 59 1
22 60 4
22 61 3
22 62 1
22 63 2
22 64 2
22 65 3
22 66 4
22 67 1
22 68 2
22 69 4
22 70 4
22 71 4
22 72 5
22 73 3
22 74 2
22 75 1
22 76 2
22 77 4
22 78 5
22 79 1
22 80 5
22 81 5
22 82 2
22 83 5
22 84 4
22 85 4
22 86 5
22 87 5
22 88 2
22 89 1
22 90 4
22 91 1
22 92 2
22 93 5
22 94 3
22 95 2
22 96 1
22 97 2
22 98 4
22 99 5
22 100 4
23 24 2
23 25 4
23 26 3
23 27 5
23 28 1
23 29 3
23 30 3
23 31 3
23 32 4
23 33 5
23 34 4
23 35 3
23 36 3
23 37 4
23 38 1
23 39 2
23 40 1
23 41 4
23 42 2
23 43 1
23 44 1
23 45 4
23 46 4
23 47 1
23 48 5
23 49 5
23 50 5
23 51 2
23 52 1
23 53 4
23 54 5
23 55 1
23 56 4
23 57 4
23 58 1
23 59 5
23 60 1
23 61 1
23 62 5
23 63 5
23 64 4
23 65 1
23 66 2
23 67 4
23 68 5
23 69 3
23 70 5
23 71 1
23 72 1
23 73 2
23 74 5
23 75 4
23 76 3
23 77 4
23 78 5
23 79 4
23 80 3
23 81 1
23 82 5
23 83 4
23 84 4
23 85 4
23 86 5
23 87 1
23 88 5
23 89 4
23 90 3
23 91 2
23 92 1
23 93 2
23 94 5
23 95 2
23 96 5
23 97 3
23 98 3
23 99 3
23 100 1
24 25 4
24 26 5
24 27 4
24 28 2
24 29 5
24 30 3
24 31 2
24 32 4
24 33 3
24 34 1
24 35 4
24 36 5
24 37 2
24 38 5
24 39 1
24 40 5
24 41 5
24 42 5
24 43 5
24 44 1
24 45 1
24 46 1
24 47 4
24 48 4
24 49 5
24 50 4
24 51 3
24 52 4
24 53 1
24 54 2
24 55 3
24 56 3
24 57 5
24 58 4
24 59 1
24 60 2
24 61 5
24 62 5
24 63 4
24 64 4
24 65 2
24 66 1
24 67 4
24 68 3
24 69 2
24 70 2
24 71 5
24 72 4
24 73 5
24 74 3
24 75 4
24 76 4
24 77 1
24 78 2
24 79 1
24 80 2
24 81 4
24 82 3
24 83 5
24 84 3
24 85 4
24 86 4
24 87 2
24 88 5
24 89 2
24 90 2
24 91 5
24 92 4
24 93 3
24 94 3
24 95 3
24 96 2
24 97 1
24 98 2
24 99 1
24 100 2
25 26 5
25 27 4
25 28 3
25 29 5
25 30 4
25 31 3
25 32 1
25 33 5
25 34 3
25 35 5
25 36 3
25 37 4
25 38 4
25 39 4
25 40 1
25 41 5
25 42 3
25 43 4
25 44 5
25 45 2
25 46 4
25 47 2
25 48 2
25 49 4
25 50 5
25 51 2
25 52 5
25 53 5
25 54 3
25 55 4
25 56 3
25 57 3
25 58 3
25 59 3
25 60 4
25 61 4
25 62 4
25 63 5
25 64 3
25 65 2
25 66 4
25 67 3
25 68 5
25 69 2
25 70 2
25 71 2
25 72 1
25 73 5
25 74 2
25 75 2
25 76 4
25 77 4
25 78 1
25 79 5
25 80 4
25 81 2
25 82 4
25 83 3
25 84 5
25 85 3
25 86 1
25 87 3
25 88 2
25 89 5
25 90 5
25 91 3
25 92 1
25 93 4
25 94 4
25 95 3
25 96 1
25 97 3
25 98 5
25 99 1
25 100 5
26 27 5
26 28 2
26 29 1
26 30 3
26 31 3
26 32 1
26 33 4
26 34 2
26 35 3
26 36 4
26 37 3
26 38 1
26 39 3
26 40 2
26 41 1
26 42 1
26 43 2
26 44 4
26 45 5
26 46 5
26 47 1
26 48 5
26 49 5
26 50 3
26 51 3
26 52 5
26 53 1
26 54 2
26 55 2
26 56 2
26 57 2
26 58 1
26 59 2
26 60 1
26 61 4
26 62 5
26 63 2
26 64 4
26 65 3
26 66 5
26 67 3
26 68 5
26 69 2
26 70 2
26 71 4
26 72 3
26 73 3
26 74 3
26 75 5
26 76 1
26 77 4
26 78 4
26 79 4
26 80 4
26 81 2
26 82 1
26 83 4
26 84 2
26 85 4
26 86 2
26 87 2
26 88 2
26 89 3
26 90 3
26 91 3
26 92 2
26 93 2
26 94 2
26 95 2
26 96 2
26 97 3
26 98 5
26 99 5
26 100 3
27 28 5
27 29 5
27 30 1
27 31 3
27 32 4
27 33 5
27 34 1
27 35 1
27 36 5
27 37 2
27 38 1
27 39 1
27 40 3
27 41 2
27 42 5
27 43 5
27 44 1
27 45 1
27 46 1
27 47 1
27 48 4
27 49 5
27 50 3
27 51 4
27 52 3
27 53 2
27 54 5
27 55 4
27 56 1
27 57 1
27 58 4
27 59 4
27 60 5
27 61 3
27 62 5
27 63 5
27 64 5
27 65 4
27 66 5
27 67 2
27 68 3
27 69 3
27 70 5
27 71 2
27 72 5
27 73 4
27 74 1
27 75 3
27 76 4
27 77 2
27 78 1
27 79 1
27 80 5
27 81 1
27 82 3
27 83 5
27 84 4
27 85 4
27 86 4
27 87 5
27 88 3
27 89 3
27 90 4
27 91 3
27 92 1
27 93 4
27 94 1
27 95 5
27 96 3
27 97 5
27 98 1
27 99 5
27 100 2
28 29 2
28 30 2
28 31 2
28 32 4
28 33 2
28 34 5
28 35 4
28 36 4
28 37 4
28 38 3
28 39 2
28 40 3
28 41 4
28 42 2
28 43 2
28 44 2
28 45 3
28 46 1
28 47 1
28 48 1
28 49 4
28 50 1
28 51 4
28 52 5
28 53 5
28 54 5
28 55 2
28 56 1
28 57 3
28 58 4
28 59 4
28 60 2
28 61 2
28 62 2
28 63 4
28 64 5
28 65 5
28 66 5
28 67 4
28 68 4
28 69 3
28 70 5
28 71 5
28 72 4
28 73 5
28 74 5
28 75 4
28 76 4
28 77 5
28 78 3
28 79 1
28 80 4
28 81 2
28 82 5
28 83 3
28 84 2
28 85 2
28 86 5
28 87 1
28 88 1
28 89 3
28 90 5
28 91 3
28 92 4
28 93 5
28 94 3
28 95 3
28 96 4
28 97 4
28 98 1
28 99 5
28 100 2
29 30 5
29 31 2
29 32 3
29 33 2
29 34 3
29 35 1
29 36 2
29 37 2
29 38 1
29 39 2
29 40 3
29 41 2
29 42 4
29 43 3
29 44 2
29 45 2
29 46 5
29 47 3
29 48 3
29 49 1
29 50 5
29 51 4
29 52 3
29 53 1
29 54 4
29 55 5
29 56 3
29 57 1
29 58 3
29 59 3
29 60 3
29 61 3
29 62 2
29 63 4
29 64 3
29 65 5
29 66 2
29 67 3
29 68 3
29 69 3
29 70 2
29 71 3
29 72 3
29 73 4
29 74 3
29 75 2
29 76 5
29 77 1
29 78 2
29 79 5
29 80 2
29 81 1
29 82 1
29 83 3
29 84 4
29 85 4
29 86 2
29 87 2
29 88 5
29 89 3
29 90 1
29 91 1
29 92 4
29 93 1
29 94 5
29 95 2
29 96 4
29 97 4
29 98 2
29 99 3
29 100 5
30 31 5
30 32 5
30 33 1
30 34 4
30 35 2
30 36 2
30 37 5
30 38 4
30 39 2
30 40 1
30 41 3
30 42 4
30 43 2
30 44 2
30 45 3
30 46 3
30 47 5
30 48 2
30 49 1
30 50 2
30 51 4
30 52 1
30 53 2
30 54 1
30 55 5
30 56 3
30 57 2
30 58 2
30 59 2
30 60 5
30 61 3
30 62 3
30 63 1
30 64 2
30 65 2
30 66 4
30 67 1
30 68 4
30 69 2
30 70 2
30 71 1
30 72 5
30 73 5
30 74 3
30 75 2
30 76 2
30 77 5
30 78 5
30 79 4
30 80 5
30 81 4
30 82 3
30 83 1
30 84 5
30 85 1
30 86 1
30 87 5
30 88 4
30 89 2
30 90 3
30 91 1
30 92 5
30 93 5
30 94 3
30 95 2
30 96 2
30 97 5
30 98 2
30 99 4
30 100 3
31 32 4
31 33 5
31 34 5
31 35 5
31 36 2
31 37 1
31 38 2
31 39 5
31 40 5
31 41 4
31 42 3
31 43 3
31 44 4
31 45 4
31 46 3
31 47 3
31 48 5
31 49 2
31 50 2
31 51 5
31 52 2
31 53 2
31 54 3
31 55 4
31 56 2
31 57 3
31 58 5
31 59 4
31 60 3
31 61 4
31 62 1
31 63 1
31 64 1
31 65 5
31 66 5
31 67 3
31 68 3
31 69 5
31 70 1
31 71 2
31 72 3
31 73 4
31 74 4
31 75 1
31 76 2
31 77 1
31 78 3
31 79 1
31 80 4
31 81 2
31 82 5
31 83 5
31 84 1
31 85 4
31 86 1
31 87 5
31 88 3
31 89 2
31 90 1
31 91 3
31 92 4
31 93 1
31 94 1
31 95 3
31 96 1
31 97 1
31 98 4
31 99 2
31 100 5
32 33 3
32 34 4
32 35 4
32 36 5
32 37 1
32 38 4
32 39 1
32 40 5
32 41 2
32 42 3
32 43 4
32 44 1
32 45 4
32 46 3
32 47 2
32 48 1
32 49 1
32 50 4
32 51 3
32 52 4
32 53 4
32 54 2
32 55 5
32 56 3
32 57 1
32 58 4
32 59 1
32 60 2
32 61 2
32 62 3
32 63 2
32 64 5
32 65 3
32 66 5
32 67 3
32 68 1
32 69 5
32 70 3
32 71 4
32 72 3
32 73 5
32 74 4
32 75 2
32 76 3
32 77 3
32 78 1
32 79 3
32 80 2
32 81 4
32 82 1
32 83 5
32 84 3
32 85 2
32 86 4
32 87 3
32 88 2
32 89 5
32 90 2
32 91 1
32 92 1
32 93 2
32 94 2
32 95 5
32 96 4
32 97 4
32 98 1
32 99 2
32 100 4
33 34 3
33 35 2
33 36 3
33 37 3
33 38 5
33 39 2
33 40 5
33 41 1
33 42 2
33 43 4
33 44 5
33 45 4
33 46 4
33 47 5
33 48 2
33 49 2
33 50 1
33 51 5
33 52 1
33 53 2
33 54 4
33 55 5
33 56 3
33 57 4
33 58 5
33 59 3
33 60 4
33 61 1
33 62 1
33 63 4
33 64 5
33 65 2
33 66 1
33 67 1
33 68 1
33 69 2
33 70 4
33 71 3
33 72 5
33 73 3
33 74 3
33 75 2
33 76 2
33 77 4
33 78 5
33 79 5
33 80 4
33 81 3
33 82 4
33 83 1
33 84 2
33 85 4
33 86 3
33 87 2
33 88 4
33 89 2
33 90 4
33 91 1
33 92 1
33 93 1
33 94 5
33 95 4
33 96 5
33 97 3
33 98 4
33 99 1
33 100 2
34 35 5
34 36 4
34 37 3
34 38 4
34 39 1
34 40 4
34 41 5
34 42 5
34 43 1
34 44 5
34 45 5
34 46 3
34 47 5
34 48 5
34 49 5
34 50 2
34 51 2
34 52 2
34 53 4
34 54 2
34 55 1
34 56 1
34 57 5
34 58 1
34 59 1
34 60 5
34 61 4
34 62 1
34 63 5
34 64 1
34 65 3
34 66 3
34 67 5
34 68 4
34 69 1
34 70 5
34 71 3
34 72 3
34 73 2
34 74 4
34 75 5
34 76 3
34 77 4
34 78 2
34 79 4
34 80 2
34 81 5
34 82 2
34 83 2
34 84 2
34 85 5
34 86 1
34 87 4
34 88 4
34 89 3
34 90 5
34 91 1
34 92 5
34 93 5
34 94 5
34 95 3
34 96 2
34 97 1
34 98 1
34 99 2
34 100 3
35 36 4
35 37 3
35 38 5
35 39 2
35 40 4
35 41 3
35 42 5
35 43 2
35 44 1
35 45 1
35 46 4
35 47 5
35 48 2
35 49 2
35 50 2
35 51 5
35 52 3
35 53 1
35 54 1
35 55 4
35 56 4
35 57 4
35 58 3
35 59 1
35 60 3
35 61 1
35 62 3
35 63 3
35 64 1
35 65 3
35 66 4
35 67 1
35 68 4
35 69 3
35 70 1
35 71 3
35 72 2
35 73 2
35 74 4
35 75 1
35 76 3
35 77 5
35 78 2
35 79 1
35 80 1
35 81 2
35 82 3
35 83 2
35 84 1
35 85 5
35 86 5
35 87 1
35 88 2
35 89 2
35 90 3
35 91 1
35 92 5
35 93 1
35 94 3
35 95 3
35 96 5
35 97 5
35 98 3
35 99 1
35 100 3
36 37 2
36 38 5
36 39 2
36 40 4
36 41 2
36 42 5
36 43 4
36 44 1
36 45 4
36 46 3
36 47 2
36 48 3
36 49 4
36 50 1
36 51 1
36 52 2
36 53 2
36 54 5
36 55 3
36 56 2
36 57 4
36 58 4
36 59 4
36 60 5
36 61 2
36 62 3
36 63 4
36 64 5
36 65 1
36 66 4
36 67 4
36 68 4
36 69 2
36 70 5
36 71 4
36 72 3
36 73 2
36 74 2
36 75 2
36 76 4
36 77 1
36 78 3
36 79 2
36 80 1
36 81 1
36 82 5
36 83 3
36 84 2
36 85 5
36 86 1
36 87 5
36 88 4
36 89 2
36 90 4
36 91 2
36 92 5
36 93 3
36 94 3
36 95 5
36 96 5
36 97 3
36 98 2
36 99 5
36 100 3
37 38 3
37 39 5
37 40 1
37 41 2
37 42 4
37 43 2
37 44 5
37 45 1
37 46 5
37 47 4
37 48 1
37 49 1
37 50 4
37 51 1
37 52 5
37 53 3
37 54 5
37 55 1
37 56 1
37 57 1
37 58 2
37 59 1
37 60 1
37 61 1
37 62 1
37 63 2
37 64 1
37 65 4
37 66 2
37 67 2
37 68 5
37 69 5
37 70 1
37 71 4
37 72 5
37 73 1
37 74 3
37 75 3
37 76 1
37 77 5
37 78 5
37 79 5
37 80 2
37 81 2
37 82 5
37 83 3
37 84 2
37 85 3
37 86 4
37 87 4
37 88 5
37 89 1
37 90 2
37 91 2
37 92 1
37 93 2
37 94 2
37 95 2
37 96 1
37 97 1
37 98 3
37 99 5
37 100 2
38 39 5
38 40 5
38 41 5
38 42 4
38 43 1
38 44 2
38 45 5
38 46 5
38 47 1
38 48 1
38 49 2
38 50 4
38 51 5
38 52 5
38 53 2
38 54 4
38 55 4
38 56 3
38 57 4
38 58 3
38 59 5
38 60 1
38 61 5
38 62 1
38 63 3
38 64 1
38 65 5
38 66 1
38 67 4
38 68 3
38 69 1
38 70 1
38 71 2
38 72 5
38 73 3
38 74 1
38 75 2
38 76 1
38 77 3
38 78 5
38 79 2
38 80 4
38 81 4
38 82 1
38 83 3
38 84 5
38 85 4
38 86 1
38 87 4
38 88 2
38 89 5
38 90 4
38 91 5
38 92 5
38 93 4
38 94 1
38 95 4
38 96 5
38 97 1
38 98 2
38 99 1
38 100 4
39 40 1
39 41 1
39 42 1
39 43 5
39 44 2
39 45 2
39 46 4
39 47 1
39 48 4
39 49 1
39 50 4
39 51 2
39 52 5
39 53 4
39 54 1
39 55 5
39 56 4
39 57 1
39 58 3
39 59 1
39 60 4
39 61 5
39 62 4
39 63 4
39 64 3
39 65 5
39 66 2
39 67 3
39 68 5
39 69 1
39 70 2
39 71 2
39 72 2
39 73 1
39 74 4
39 75 1
39 76 2
39 77 5
39 78 4
39 79 4
39 80 1
39 81 1
39 82 4
39 83 3
39 84 4
39 85 4
39 86 3
39 87 4
39 88 1
39 89 2
39 90 3
39 91 1
39 92 3
39 93 2
39 94 3
39 95 4
39 96 3
39 97 4
39 98 5
39 99 5
39 100 5
40 41 1
40 42 5
40 43 3
40 44 2
40 45 2
40 46 3
40 47 1
40 48 2
40 49 4
40 50 1
40 51 2
40 52 3
40 53 4
40 54 1
40 55 4
40 56 3
40 57 3
40 58 2
40 59 4
40 60 2
40 61 2
40 62 4
40 63 4
40 64 3
40 65 3
40 66 1
40 67 2
40 68 3
40 69 1
40 70 3
40 71 1
40 72 2
40 73 5
40 74 2
40 75 1
40 76 4
40 77 3
40 78 5
40 79 1
40 80 3
40 81 4
40 82 4
40 83 1
40 84 2
40 85 1
40 86 2
40 87 4
40 88 2
40 89 2
40 90 5
40 91 4
40 92 1
40 93 3
40 94 5
40 95 5
40 96 5
40 97 4
40 98 1
40 99 3
40 100 5
41 42 2
41 43 3
41 44 3
41 45 5
41 46 4
41 47 5
41 48 4
41 49 5
41 50 4
41 51 5
41 52 5
41 53 2
41 54 5
41 55 3
41 56 2
41 57 4
41 58 1
41 59 3
41 60 4
41 61 3
41 62 1
41 63 4
41 64 2
41 65 2
41 66 3
41 67 2
41 68 5
41 69 5
41 70 1
41 71 3
41 72 4
41 73 4
41 74 4
41 75 2
41 76 5
41 77 1
41 78 2
41 79 3
41 80 3
41 81 4
41 82 2
41 83 4
41 84 4
41 85 4
41 86 5
41 87 4
41 88 4
41 89 5
41 90 5
41 91 4
41 92 1
41 93 5
41 94 5
41 95 2
41 96 2
41 97 2
41 98 4
41 99 4
41 100 4
42 43 2
42 44 1
42 45 3
42 46 1
42 47 4
42 48 2
42 49 4
42 50 4
42 51 3
42 52 5
42 53 2
42 54 4
42 55 5
42 56 5
42 57 2
42 58 1
42 59 2
42 60 2
42 61 1
42 62 1
42 63 4
42 64 4
42 65 5
42 66 3
42 67 1
42 68 4
42 69 4
42 70 5
42 71 1
42 72 4
42 73 5
42 74 2
42 75 1
42 76 2
42 77 2
42 78 2
42 79 2
42 80 4
42 81 3
42 82 3
42 83 2
42 84 2
42 85 1
42 86 5
42 87 5
42 88 3
42 89 1
42 90 3
42 91 4
42 92 5
42 93 4
42 94 5
42 95 3
42 96 1
42 97 5
42 98 1
42 99 4
42 100 4
43 44 1
43 45 2
43 46 2
43 47 5
43 48 1
43 49 1
43 50 4
43 51 1
43 52 5
43 53 1
43 54 5
43 55 1
43 56 2
43 57 4
43 58 5
43 59 5
43 60 5
43 61 4
43 62 4
43 63 5
43 64 5
43 65 2
43 66 2
43 67 3
43 68 5
43 69 2
43 70 5
43 71 4
43 72 5
43 73 3
43 74 1
43 75 2
43 76 1
43 77 3
43 78 3
43 79 5
43 80 3
43 81 1
43 82 2
43 83 4
43 84 2
43 85 1
43 86 2
43 87 4
43 88 2
43 89 5
43 90 2
43 91 1
43 92 4
43 93 3
43 94 5
43 95 3
43 96 2
43 97 5
43 98 2
43 99 5
43 100 5
44 45 2
44 46 4
44 47 1
44 48 3
44 49 1
44 50 2
44 51 2
44 52 3
44 53 5
44 54 3
44 55 5
44 56 2
44 57 5
44 58 4
44 59 1
44 60 1
44 61 2
44 62 1
44 63 4
44 64 4
44 65 1
44 66 1
44 67 1
44 68 3
44 69 4
44 70 2
44 71 1
44 72 1
44 73 1
44 74 5
44 75 1
44 76 5
44 77 2
44 78 4
44 79 5
44 80 1
44 81 1
44 82 5
44 83 2
44 84 3
44 85 1
44 86 4
44 87 2
44 88 4
44 89 1
44 90 1
44 91 2
44 92 5
44 93 5
44 94 4
44 95 4
44 96 5
44 97 2
44 98 1
44 99 1
44 100 2
45 46 4
45 47 5
45 48 1
45 49 4
45 50 1
45 51 2
45 52 5
45 53 5
45 54 2
45 55 5
45 56 3
45 57 5
45 58 2
45 59 5
45 60 3
45 61 4
45 62 5
45 63 3
45 64 2
45 65 5
45 66 2
45 67 4
45 68 3
45 69 5
45 70 4
45 71 3
45 72 3
45 73 3
45 74 3
45 75 1
45 76 2
45 77 5
45 78 5
45 79 5
45 80 5
45 81 1
45 82 4
45 83 5
45 84 5
45 85 2
45 86 3
45 87 2
45 88 2
45 89 3
45 90 3
45 91 2
45 92 2
45 93 3
45 94 4
45 95 1
45 96 1
45 97 5
45 98 5
45 99 3
45 100 5
46 47 3
46 48 1
46 49 2
46 50 2
46 51 4
46 52 1
46 53 1
46 54 3
46 55 1
46 56 2
46 57 3
46 58 3
46 59 2
46 60 3
46 61 4
46 62 2
46 63 2
46 64 4
46 65 2
46 66 1
46 67 5
46 68 5
46 69 3
46 70 2
46 71 3
46 72 1
46 73 1
46 74 1
46 75 5
46 76 1
46 77 4
46 78 2
46 79 4
46 80 4
46 81 4
46 82 1
46 83 3
46 84 5
46 85 2
46 86 3
46 87 3
46 88 5
46 89 1
46 90 5
46 91 5
46 92 1
46 93 4
46 94 5
46 95 3
46 96 1
46 97 5
46 98 4
46 99 4
46 100 2
47 48 5
47 49 2
47 50 4
47 51 3
47 52 3
47 53 1
47 54 3
47 55 3
47 56 4
47 57 3
47 58 3
47 59 2
47 60 3
47 61 3
47 62 1
47 63 2
47 64 1
47 65 3
47 66 2
47 67 3
47 68 1
47 69 3
47 70 5
47 71 5
47 72 1
47 73 3
47 74 2
47 75 1
47 76 4
47 77 3
47 78 4
47 79 3
47 80 4
47 81 3
47 82 3
47 83 2
47 84 5
47 85 5
47 86 1
47 87 1
47 88 2
47 89 1
47 90 1
47 91 2
47 92 5
47 93 2
47 94 5
47 95 2
47 96 2
47 97 1
47 98 1
47 99 2
47 100 3
48 49 1
48 50 2
48 51 1
48 52 1
48 53 1
48 54 3
48 55 2
48 56 1
48 57 3
48 58 3
48 59 2
48 60 4
48 61 4
48 62 1
48 63 1
48 64 4
48 65 2
48 66 4
48 67 5
48 68 1
48 69 5
48 70 1
48 71 3
48 72 3
48 73 3
48 74 5
48 75 2
48 76 2
48 77 3
48 78 4
48 79 3
48 80 2
48 81 2
48 82 4
48 83 2
48 84 1
48 85 5
48 86 2
48 87 4
48 88 1
48 89 5
48 90 2
48 91 2
48 92 2
48 93 5
48 94 4
48 95 3
48 96 2
48 97 5
48 98 4
48 99 3
48 100 1
49 50 4
49 51 1
49 52 4
49 53 1
49 54 1
49 55 1
49 56 1
49 57 4
49 58 1
49 59 1
49 60 3
49 61 3
49 62 5
49 63 5
49 64 4
49 65 4
49 66 3
49 67 5
49 68 2
49 69 5
49 70 5
49 71 5
49 72 1
49 73 2
49 74 1
49 75 2
49 76 1
49 77 2
49 78 4
49 79 2
49 80 2
49 81 4
49 82 2
49 83 4
49 84 5
49 85 2
49 86 4
49 87 2
49 88 2
49 89 2
49 90 2
49 91 3
49 92 3
49 93 5
49 94 3
49 95 5
49 96 2
49 97 4
49 98 4
49 99 4
49 100 3
50 51 1
50 52 5
50 53 5
50 54 5
50 55 4
50 56 2
50 57 3
50 58 2
50 59 2
50 60 2
50 61 4
50 62 2
50 63 1
50 64 1
50 65 3
50 66 5
50 67 1
50 68 2
50 69 4
50 70 2
50 71 2
50 72 2
50 73 4
50 74 5
50 75 2
50 76 3
50 77 5
50 78 2
50 79 5
50 80 5
50 81 4
50 82 3
50 83 1
50 84 1
50 85 1
50 86 2
50 87 4
50 88 5
50 89 1
50 90 4
50 91 1
50 92 4
50 93 5
50 94 5
50 95 3
50 96 4
50 97 2
50 98 4
50 99 5
50 100 4
51 52 5
51 53 4
51 54 2
51 55 1
51 56 3
51 57 1
51 58 4
51 59 4
51 60 5
51 61 1
51 62 5
51 63 2
51 64 4
51 65 2
51 66 3
51 67 3
51 68 3
51 69 4
51 70 3
51 71 5
51 72 2
51 73 2
51 74 4
51 75 5
51 76 5
51 77 5
51 78 2
51 79 5
51 80 4
51 81 1
51 82 4
51 83 3
51 84 5
51 85 2
51 86 4
51 87 2
51 88 3
51 89 3
51 90 2
51 91 4
51 92 2
51 93 4
51 94 5
51 95 1
51 96 1
51 97 3
51 98 1
51 99 4
51 100 3
52 53 1
52 54 4
52 55 4
52 56 2
52 57 4
52 58 1
52 59 4
52 60 2
52 61 3
52 62 2
52 63 5
52 64 4
52 65 5
52 66 1
52 67 3
52 68 4
52 69 4
52 70 2
52 71 2
52 72 4
52 73 3
52 74 5
52 75 3
52 76 2
52 77 3
52 78 3
52 79 3
52 80 3
52 81 4
52 82 4
52 83 3
52 84 5
52 85 4
52 86 1
52 87 5
52 88 1
52 89 2
52 90 2
52 91 2
52 92 2
52 93 2
52 94 1
52 95 5
52 96 2
52 97 3
52 98 1
52 99 2
52 100 4
53 54 1
53 55 5
53 56 1
53 57 4
53 58 5
53 59 2
53 60 1
53 61 4
53 62 2
53 63 5
53 64 2
53 65 2
53 66 3
53 67 1
53 68 2
53 69 2
53 70 3
53 71 2
53 72 1
53 73 4
53 74 5
53 75 3
53 76 4
53 77 2
53 78 4
53 79 3
53 80 3
53 81 2
53 82 1
53 83 2
53 84 2
53 85 1
53 86 5
53 87 1
53 88 5
53 89 2
53 90 4
53 91 1
53 92 5
53 93 2
53 94 5
53 95 4
53 96 2
53 97 1
53 98 3
53 99 5
53 100 2
54 55 2
54 56 4
54 57 5
54 58 5
54 59 1
54 60 5
54 61 5
54 62 4
54 63 3
54 64 3
54 65 4
54 66 5
54 67 2
54 68 3
54 69 2
54 70 4
54 71 1
54 72 2
54 73 2
54 74 2
54 75 5
54 76 4
54 77 1
54 78 2
54 79 3
54 80 1
54 81 1
54 82 2
54 83 5
54 84 1
54 85 5
54 86 2
54 87 4
54 88 4
54 89 2
54 90 1
54 91 4
54 92 4
54 93 3
54 94 4
54 95 4
54 96 1
54 97 3
54 98 3
54 99 3
54 100 4
55 56 3
55 57 2
55 58 1
55 59 2
55 60 1
55 61 3
55 62 2
55 63 2
55 64 4
55 65 2
55 66 3
55 67 5
55 68 5
55 69 1
55 70 4
55 71 3
55 72 4
55 73 3
55 74 1
55 75 5
55 76 4
55 77 5
55 78 5
55 79 4
55 80 1
55 81 2
55 82 3
55 83 3
55 84 3
55 85 5
55 86 3
55 87 4
55 88 4
55 89 2
55 90 5
55 91 1
55 92 1
55 93 1
55 94 4
55 95 4
55 96 2
55 97 2
55 98 2
55 99 3
55 100 2
56 57 5
56 58 3
56 59 4
56 60 3
56 61 3
56 62 1
56 63 2
56 64 2
56 65 1
56 66 4
56 67 1
56 68 4
56 69 4
56 70 5
56 71 1
56 72 2
56 73 2
56 74 2
56 75 5
56 76 1
56 77 1
56 78 5
56 79 1
56 80 1
56 81 4
56 82 5
56 83 4
56 84 5
56 85 4
56 86 2
56 87 3
56 88 5
56 89 5
56 90 4
56 91 1
56 92 4
56 93 3
56 94 1
56 95 5
56 96 3
56 97 2
56 98 1
56 99 5
56 100 2
57 58 4
57 59 1
57 60 5
57 61 5
57 62 4
57 63 3
57 64 4
57 65 2
57 66 5
57 67 4
57 68 2
57 69 1
57 70 3
57 71 5
57 72 1
57 73 4
57 74 1
57 75 1
57 76 1
57 77 1
57 78 1
57 79 2
57 80 1
57 81 1
57 82 4
57 83 3
57 84 2
57 85 5
57 86 2
57 87 4
57 88 4
57 89 2
57 90 3
57 91 5
57 92 1
57 93 2
57 94 4
57 95 1
57 96 2
57 97 5
57 98 2
57 99 3
57 100 4
58 59 2
58 60 2
58 61 5
58 62 5
58 63 3
58 64 4
58 65 1
58 66 3
58 67 2
58 68 1
58 69 1
58 70 3
58 71 2
58 72 2
58 73 3
58 74 2
58 75 4
58 76 5
58 77 4
58 78 1
58 79 5
58 80 3
58 81 1
58 82 1
58 83 3
58 84 2
58 85 1
58 86 4
58 87 4
58 88 2
58 89 5
58 90 5
58 91 3
58 92 5
58 93 1
58 94 1
58 95 1
58 96 4
58 97 4
58 98 3
58 99 1
58 100 1
59 60 5
59 61 3
59 62 1
59 63 4
59 64 5
59 65 4
59 66 3
59 67 3
59 68 5
59 69 2
59 70 4
59 71 2
59 72 5
59 73 5
59 74 5
59 75 4
59 76 4
59 77 4
59 78 3
59 79 5
59 80 1
59 81 2
59 82 1
59 83 4
59 84 5
59 85 4
59 86 1
59 87 1
59 88 5
59 89 2
59 90 5
59 91 1
59 92 4
59 93 4
59 94 5
59 95 2
59 96 3
59 97 4
59 98 2
59 99 1
59 100 1
60 61 2
60 62 1
60 63 1
60 64 3
60 65 5
60 66 3
60 67 3
60 68 5
60 69 1
60 70 2
60 71 4
60 72 2
60 73 4
60 74 3
60 75 2
60 76 2
60 77 1
60 78 5
60 79 1
60 80 4
60 81 2
60 82 2
60 83 1
60 84 4
60 85 1
60 86 4
60 87 4
60 88 4
60 89 5
60 90 2
60 91 2
60 92 4
60 93 5
60 94 5
60 95 3
60 96 5
60 97 5
60 98 2
60 99 1
60 100 5
61 62 4
61 63 2
61 64 3
61 65 2
61 66 5
61 67 4
61 68 2
61 69 4
61 70 2
61 71 4
61 72 1
61 73 5
61 74 1
61 75 2
61 76 5
61 77 3
61 78 4
61 79 3
61 80 4
61 81 2
61 82 1
61 83 3
61 84 3
61 85 5
61 86 1
61 87 2
61 88 5
61 89 5
61 90 4
61 91 3
61 92 5
61 93 3
61 94 1
61 95 2
61 96 4
61 97 2
61 98 2
61 99 3
61 100 5
62 63 1
62 64 4
62 65 4
62 66 2
62 67 3
62 68 2
62 69 3
62 70 5
62 71 4
62 72 4
62 73 1
62 74 2
62 75 1
62 76 3
62 77 4
62 78 2
62 79 1
62 80 3
62 81 1
62 82 5
62 83 1
62 84 5
62 85 5
62 86 3
62 87 5
62 88 1
62 89 1
62 90 3
62 91 3
62 92 1
62 93 4
62 94 3
62 95 5
62 96 3
62 97 4
62 98 2
62 99 2
62 100 5
63 64 3
63 65 1
63 66 1
63 67 5
63 68 1
63 69 2
63 70 2
63 71 1
63 72 1
63 73 1
63 74 5
63 75 3
63 76 4
63 77 1
63 78 1
63 79 5
63 80 2
63 81 4
63 82 4
63 83 3
63 84 2
63 85 5
63 86 4
63 87 5
63 88 4
63 89 5
63 90 5
63 91 3
63 92 3
63 93 2
63 94 2
63 95 1
63 96 4
63 97 3
63 98 5
63 99 2
63 100 5
64 65 2
64 66 1
64 67 4
64 68 5
64 69 1
64 70 3
64 71 3
64 72 5
64 73 5
64 74 3
64 75 5
64 76 5
64 77 2
64 78 3
64 79 4
64 80 5
64 81 1
64 82 3
64 83 5
64 84 4
64 85 5
64 86 4
64 87 4
64 88 3
64 89 1
64 90 5
64 91 2
64 92 4
64 93 3
64 94 3
64 95 2
64 96 3
64 97 1
64 98 2
64 99 1
64 100 5
65 66 5
65 67 5
65 68 3
65 69 3
65 70 1
65 71 3
65 72 4
65 73 4
65 74 1
65 75 4
65 76 5
65 77 3
65 78 1
65 79 3
65 80 4
65 81 3
65 82 3
65 83 1
65 84 1
65 85 2
65 86 3
65 87 2
65 88 4
65 89 3
65 90 3
65 91 4
65 92 1
65 93 1
65 94 5
65 95 4
65 96 1
65 97 2
65 98 2
65 99 5
65 100 4
66 67 2
66 68 4
66 69 4
66 70 1
66 71 4
66 72 4
66 73 2
66 74 4
66 75 1
66 76 1
66 77 3
66 78 5
66 79 1
66 80 2
66 81 5
66 82 3
66 83 1
66 84 5
66 85 2
66 86 1
66 87 3
66 88 3
66 89 1
66 90 2
66 91 4
66 92 1
66 93 2
66 94 1
66 95 2
66 96 3
66 97 3
66 98 3
66 99 2
66 100 3
67 68 5
67 69 3
67 70 4
67 71 5
67 72 4
67 73 2
67 74 5
67 75 2
67 76 2
67 77 1
67 78 2
67 79 5
67 80 1
67 81 3
67 82 2
67 83 1
67 84 1
67 85 1
67 86 5
67 87 5
67 88 2
67 89 4
67 90 1
67 91 1
67 92 3
67 93 4
67 94 2
67 95 5
67 96 3
67 97 3
67 98 4
67 99 2
67 100 3
68 69 3
68 70 2
68 71 4
68 72 1
68 73 3
68 74 4
68 75 3
68 76 1
68 77 1
68 78 3
68 79 3
68 80 4
68 81 2
68 82 4
68 83 5
68 84 4
68 85 4
68 86 5
68 87 3
68 88 4
68 89 2
68 90 5
68 91 3
68 92 3
68 93 2
68 94 1
68 95 4
68 96 3
68 97 3
68 98 5
68 99 5
68 100 2
69 70 3
69 71 1
69 72 2
69 73 4
69 74 5
69 75 5
69 76 1
69 77 3
69 78 5
69 79 1
69 80 3
69 81 4
69 82 5
69 83 2
69 84 4
69 85 1
69 86 4
69 87 1
69 88 4
69 89 2
69 90 3
69 91 2
69 92 5
69 93 2
69 94 2
69 95 1
69 96 1
69 97 4
69 98 2
69 99 2
69 100 5
70 71 5
70 72 4
70 73 2
70 74 4
70 75 2
70 76 3
70 77 3
70 78 2
70 79 2
70 80 5
70 81 3
70 82 4
70 83 4
70 84 5
70 85 4
70 86 1
70 87 3
70 88 4
70 89 4
70 90 1
70 91 1
70 92 3
70 93 4
70 94 5
70 95 4
70 96 2
70 97 4
70 98 1
70 99 1
70 100 1
71 72 1
71 73 2
71 74 2
71 75 1
71 76 3
71 77 5
71 78 4
71 79 4
71 80 3
71 81 2
71 82 3
71 83 2
71 84 1
71 85 1
71 86 1
71 87 3
71 88 3
71 89 3
71 90 2
71 91 2
71 92 2
71 93 5
71 94 2
71 95 5
71 96 4
71 97 3
71 98 4
71 99 2
71 100 1
72 73 5
72 74 4
72 75 4
72 76 5
72 77 5
72 78 1
72 79 3
72 80 5
72 81 2
72 82 4
72 83 5
72 84 1
72 85 5
72 86 5
72 87 4
72 88 2
72 89 1
72 90 5
72 91 5
72 92 1
72 93 1
72 94 3
72 95 4
72 96 4
72 97 5
72 98 5
72 99 1
72 100 4
73 74 4
73 75 4
73 76 1
73 77 2
73 78 5
73 79 3
73 80 1
73 81 2
73 82 4
73 83 1
73 84 3
73 85 3
73 86 4
73 87 2
73 88 5
73 89 4
73 90 2
73 91 1
73 92 3
73 93 3
73 94 3
73 95 3
73 96 3
73 97 2
73 98 2
73 99 3
73 100 2
74 75 4
74 76 1
74 77 4
74 78 2
74 79 2
74 80 4
74 81 1
74 82 1
74 83 4
74 84 3
74 85 3
74 86 3
74 87 3
74 88 4
74 89 3
74 90 5
74 91 4
74 92 1
74 93 3
74 94 5
74 95 4
74 96 3
74 97 4
74 98 2
74 99 4
74 100 3
75 76 4
75 77 4
75 78 3
75 79 2
75 80 5
75 81 5
75 82 3
75 83 1
75 84 2
75 85 4
75 86 5
75 87 1
75 88 5
75 89 1
75 90 2
75 91 4
75 92 2
75 93 3
75 94 2
75 95 2
75 96 1
75 97 1
75 98 4
75 99 5
75 100 5
76 77 5
76 78 5
76 79 2
76 80 3
76 81 5
76 82 3
76 83 1
76 84 2
76 85 4
76 86 2
76 87 2
76 88 1
76 89 5
76 90 2
76 91 2
76 92 3
76 93 1
76 94 2
76 95 3
76 96 3
76 97 1
76 98 2
76 99 4
76 100 3
77 78 3
77 79 1
77 80 3
77 81 3
77 82 5
77 83 3
77 84 3
77 85 4
77 86 5
77 87 1
77 88 1
77 89 5
77 90 3
77 91 1
77 92 3
77 93 1
77 94 1
77 95 4
77 96 1
77 97 5
77 98 5
77 99 1
77 100 3
78 79 2
78 80 2
78 81 5
78 82 4
78 83 4
78 84 4
78 85 1
78 86 2
78 87 1
78 88 4
78 89 5
78 90 2
78 91 1
78 92 1
78 93 5
78 94 4
78 95 4
78 96 4
78 97 5
78 98 2
78 99 2
78 100 3
79 80 5
79 81 3
79 82 3
79 83 3
79 84 5
79 85 2
79 86 1
79 87 3
79 88 5
79 89 3
79 90 2
79 91 1
79 92 3
79 93 5
79 94 5
79 95 1
79 96 3
79 97 2
79 98 5
79 99 1
79 100 4
80 81 5
80 82 5
80 83 5
80 84 3
80 85 5
80 86 5
80 87 5
80 88 1
80 89 4
80 90 5
80 91 5
80 92 3
80 93 2
80 94 2
80 95 1
80 96 3
80 97 1
80 98 2
80 99 4
80 100 1
81 82 2
81 83 4
81 84 2
81 85 4
81 86 1
81 87 2
81 88 1
81 89 3
81 90 1
81 91 3
81 92 1
81 93 4
81 94 4
81 95 5
81 96 4
81 97 4
81 98 5
81 99 3
81 100 5
82 83 1
82 84 3
82 85 4
82 86 4
82 87 3
82 88 3
82 89 3
82 90 2
82 91 2
82 92 3
82 93 5
82 94 4
82 95 1
82 96 5
82 97 4
82 98 3
82 99 5
82 100 4
83 84 5
83 85 4
83 86 1
83 87 1
83 88 1
83 89 3
83 90 1
83 91 3
83 92 3
83 93 3
83 94 1
83 95 3
83 96 4
83 97 5
83 98 2
83 99 3
83 100 1
84 85 4
84 86 5
84 87 2
84 88 3
84 89 1
84 90 4
84 91 2
84 92 1
84 93 3
84 94 3
84 95 5
84 96 2
84 97 3
84 98 3
84 99 5
84 100 2
85 86 3
85 87 5
85 88 5
85 89 2
85 90 3
85 91 1
85 92 5
85 93 1
85 94 4
85 95 4
85 96 1
85 97 4
85 98 5
85 99 2
85 100 2
86 87 1
86 88 3
86 89 4
86 90 2
86 91 1
86 92 2
86 93 4
86 94 5
86 95 1
86 96 2
86 97 1
86 98 2
86 99 4
86 100 4
87 88 2
87 89 2
87 90 4
87 91 4
87 92 5
87 93 4
87 94 4
87 95 5
87 96 2
87 97 2
87 98 4
87 99 2
87 100 4
88 89 3
88 90 3
88 91 5
88 92 4
88 93 1
88 94 4
88 95 5
88 96 2
88 97 5
88 98 3
88 99 5
88 100 3
89 90 4
89 91 2
89 92 5
89 93 4
89 94 3
89 95 5
89 96 5
89 97 5
89 98 1
89 99 4
89 100 5
90 91 1
90 92 2
90 93 1
90 94 5
90 95 1
90 96 3
90 97 2
90 98 2
90 99 1
90 100 5
91 92 4
91 93 4
91 94 5
91 95 4
91 96 5
91 97 2
91 98 4
91 99 5
91 100 4
92 93 1
92 94 5
92 95 4
92 96 1
92 97 1
92 98 3
92 99 2
92 100 1
93 94 2
93 95 4
93 96 2
93 97 4
93 98 5
93 99 2
93 100 5
94 95 3
94 96 4
94 97 4
94 98 5
94 99 2
94 100 1
95 96 5
95 97 1
95 98 3
95 99 4
95 100 1
96 97 1
96 98 4
96 99 2
96 100 4
97 98 1
97 99 4
97 100 4
98 99 3
98 100 3
99 100 3
